c109

VEHICLE
NUMBER                                               CAPACITY
4                                                     1236
0      40      50      0      0      0      0      0      0      1236
1      45      68      90      10      1      1      1      760      1120
2      45      70      90      30      1      1      1      668      1028
3      42      66      90      10      1      1      1      16      376
4      42      68      90      10      1      1      1      575      935
5      42      65      90      10      1      1      1      15      375
6      40      69      90      20      1      1      1      482      842
7      40      66      90      20      1      1      1      18      378
8      38      68      90      20      1      1      1      110      470
9      38      70      90      10      1      1      1      390      750
10      35      66      90      10      1      1      1      204      564
11      35      69      90      10      1      1      1      297      657
12      25      85      90      20      1      1      1      507      867
13      22      75      90      30      1      1      1      30      390
14      22      85      90      10      1      1      1      414      774
15      20      80      90      40      1      1      1      227      587
16      20      85      90      40      1      1      1      322      682
17      18      75      90      20      1      1      1      33      393
18      15      75      90      20      1      1      1      37      397
19      15      80      90      10      1      1      1      132      492
20      30      50      90      10      1      1      1      10      370
21      30      52      90      20      1      1      1      760      1120
22      28      52      90      20      1      1      1      668      1028
23      28      55      90      10      1      1      1      575      935
24      25      50      90      10      1      1      1      15      375
25      25      52      90      40      1      1      1      17      377
26      25      55      90      10      1      1      1      482      842
27      23      52      90      10      1      1      1      109      469
28      23      55      90      20      1      1      1      390      750
29      20      50      90      10      1      1      1      202      562
30      20      55      90      10      1      1      1      297      657
31      10      35      90      20      1      1      1      39      399
32      10      40      90      30      1      1      1      31      391
33      8      40      90      40      1      1      1      33      393
34      8      45      90      20      1      1      1      604      964
35      5      35      90      10      1      1      1      134      494
36      5      45      90      10      1      1      1      511      871
37      2      40      90      20      1      1      1      229      589
38      0      40      90      30      1      1      1      321      681
39      0      45      90      20      1      1      1      416      776
40      35      30      90      10      1      1      1      113      473
41      35      32      90      10      1      1      1      21      381
42      33      32      90      20      1      1      1      19      379
43      33      35      90      10      1      1      1      16      376
44      32      30      90      10      1      1      1      206      566
45      30      30      90      10      1      1      1      391      751
46      30      32      90      30      1      1      1      299      659
47      30      35      90      10      1      1      1      767      1127
48      28      30      90      10      1      1      1      483      843
49      28      35      90      10      1      1      1      766      1126
50      26      32      90      10      1      1      1      668      1028
51      25      30      90      10      1      1      1      576      936
52      25      35      90      10      1      1      1      761      1121
53      44      5      90      20      1      1      1      137      497
54      42      10      90      40      1      1      1      42      402
55      42      15      90      10      1      1      1      35      395
56      40      5      90      30      1      1      1      231      591
57      40      15      90      40      1      1      1      35      395
58      38      5      90      30      1      1      1      323      683
59      38      15      90      10      1      1      1      516      876
60      35      5      90      20      1      1      1      416      776
61      50      30      90      10      1      1      1      391      751
62      50      35      90      20      1      1      1      110      470
63      50      40      90      50      1      1      1      15      375
64      48      30      90      10      1      1      1      483      843
65      48      40      90      10      1      1      1      12      372
66      47      35      90      10      1      1      1      671      1031
67      47      40      90      10      1      1      1      12      372
68      45      30      90      10      1      1      1      576      936
69      45      35      90      10      1      1      1      763      1123
70      95      30      90      30      1      1      1      242      602
71      95      35      90      20      1      1      1      147      507
72      53      30      90      10      1      1      1      298      658
73      92      30      90      10      1      1      1      335      695
74      53      35      90      50      1      1      1      203      563
75      45      65      90      20      1      1      1      770      1130
76      90      35      90      10      1      1      1      52      412
77      88      30      90      10      1      1      1      429      789
78      88      35      90      20      1      1      1      50      410
79      87      30      90      10      1      1      1      520      880
80      85      25      90      10      1      1      1      615      975
81      85      35      90      30      1      1      1      47      407
82      75      55      90      20      1      1      1      215      575
83      72      55      90      10      1      1      1      122      482
84      70      58      90      20      1      1      1      311      671
85      68      60      90      30      1      1      1      404      764
86      66      55      90      10      1      1      1      26      386
87      65      55      90      20      1      1      1      25      385
88      65      60      90      30      1      1      1      497      857
89      63      58      90      10      1      1      1      590      950
90      60      55      90      10      1      1      1      20      380
91      60      60      90      10      1      1      1      683      1043
92      67      85      90      20      1      1      1      225      585
93      65      85      90      40      1      1      1      317      677
94      65      82      90      10      1      1      1      131      491
95      62      80      90      30      1      1      1      38      398
96      60      80      90      10      1      1      1      36      396
97      60      85      90      30      1      1      1      412      772
98      58      75      90      20      1      1      1      30      390
99      55      80      90      10      1      1      1      602      962
100      55      85      90      20      1      1      1      507      867
